
Gurobi 10.0.0 (linux64) logging started Sat Nov 26 18:23:37 2022

Set parameter LogFile to value "../results/k04_n050_d050/k04_n075_d050_R75_5g_A-MILO_log.txt"
Gurobi Optimizer version 10.0.0 build v10.0.0rc2 (linux64)

CPU model: Intel(R) Xeon(R) CPU E5-2630 v4 @ 2.20GHz, instruction set [SSE2|AVX|AVX2]
Thread count: 20 physical cores, 40 logical processors, using up to 10 threads

Optimize a model with 16959 rows, 1707 columns and 50952 nonzeros
Model fingerprint: 0xbb7f2125
Coefficient statistics:
  Matrix range     [1e+00, 1e+00]
  Objective range  [1e+00, 1e+00]
  Bounds range     [1e+00, 1e+00]
  RHS range        [1e+00, 2e+00]
Presolve removed 298 rows and 37 columns
Presolve time: 0.07s
Presolved: 1670 rows, 18430 columns, 51826 nonzeros

Concurrent LP optimizer: primal simplex, dual simplex, and barrier
Showing barrier log only...

Ordering time: 0.00s

Barrier statistics:
 Free vars  : 74
 AA' NZ     : 1.693e+04
 Factor NZ  : 5.213e+04 (roughly 9 MB of memory)
 Factor Ops : 7.070e+06 (less than 1 second per iteration)
 Threads    : 8

                  Objective                Residual
Iter       Primal          Dual         Primal    Dual     Compl     Time
   0   6.53833550e+03  3.30000000e+01  1.59e+00 1.00e+00  6.02e-01     0s
   1   2.36611572e+03  1.09784215e+03  0.00e+00 1.01e-05  6.33e-02     0s
   2   1.55260851e+03  1.39408382e+03  0.00e+00 1.20e-06  7.92e-03     0s
   3   1.44583210e+03  1.40249567e+03  0.00e+00 6.69e-07  2.16e-03     0s
   4   1.41046791e+03  1.40575480e+03  0.00e+00 5.73e-08  2.35e-04     0s
   5   1.40709053e+03  1.40697711e+03  0.00e+00 2.27e-08  5.66e-06     0s
   6   1.40700000e+03  1.40700000e+03  0.00e+00 5.56e-09  2.74e-11     0s

Barrier solved model in 6 iterations and 0.17 seconds (0.09 work units)
Optimal objective 1.40700000e+03

Crossover log...

       0 DPushes remaining with DInf 0.0000000e+00                 0s

      42 PPushes remaining with PInf 0.0000000e+00                 0s
       0 PPushes remaining with PInf 0.0000000e+00                 0s

  Push phase complete: Pinf 0.0000000e+00, Dinf 1.1102230e-15      0s


Solved with barrier
Extra simplex iterations after uncrush: 3
Iteration    Objective       Primal Inf.    Dual Inf.      Time
      48    1.4070000e+03   0.000000e+00   0.000000e+00      0s

Solved in 48 iterations and 0.20 seconds (0.10 work units)
Optimal objective  1.407000000e+03
